# Parafac2
Iter   # comps  # strict ELBO Diff      ELBO       Fit
   50         2         2  2.42e-01 -1.51e+04  1.55e+00
  100         2         2  5.19e-02 -1.51e+04  1.56e+00
  150         2         2  2.89e-02 -1.50e+04  1.55e+00
  200         2         2  1.99e-02 -1.50e+04  1.55e+00
  250         2         2  1.69e-02 -1.50e+04  1.54e+00
  300         2         2  1.89e-02 -1.50e+04  1.52e+00
  350         2         2  3.04e-02 -1.50e+04  1.48e+00
  400         2         2  9.07e-02 -1.50e+04  1.39e+00
  450         2         2  2.22e-02 -1.50e+04  1.27e+00
  500         2         2  3.29e-03 -1.50e+04  1.26e+00
 Iter   # comps  # strict ELBO Diff      ELBO       Fit
CAVI has stopped at iteration 500 (max iteration) with change 0.000000
Elapsed time is 4.687487 seconds.

ans =
    1.2634

# Von mises
 Iter   # comps  # strict ELBO Diff      ELBO       Fit
   10         4         4  1.74e+04 -5.54e+06  3.43e+01
   20         4         4  1.91e+03 -5.50e+06  3.48e+01
   30         4         4  1.68e+01 -1.62e+04  5.55e-01
   40         2         2  5.18e+00 -1.62e+04  6.19e-01
   50         2         2  3.63e-01 -1.61e+04  6.32e-01
   60         2         2  2.34e-01 -1.61e+04  6.33e-01
   70         2         2  1.58e-01 -1.61e+04  6.32e-01
   80         2         2  8.28e-02 -1.61e+04  6.30e-01
   90         2         2  4.20e-02 -1.61e+04  6.29e-01
  100         2         2  2.54e-02 -1.61e+04  6.29e-01
  110         2         2  1.74e-02 -1.61e+04  6.29e-01
  120         2         2  1.25e-02 -1.61e+04  6.29e-01
  130         2         2  9.18e-03 -1.61e+04  6.29e-01
  140         2         2  6.84e-03 -1.61e+04  6.29e-01
  150         2         2  5.16e-03 -1.61e+04  6.29e-01
  160         2         2  3.94e-03 -1.61e+04  6.29e-01
  170         2         2  3.04e-03 -1.61e+04  6.29e-01
  180         2         2  2.37e-03 -1.61e+04  6.29e-01
  190         2         2  1.87e-03 -1.61e+04  6.29e-01
 Iter   # comps  # strict ELBO Diff      ELBO       Fit

CAVI has converged with last change 0.000000
Elapsed time is 1.965765 seconds.
ans =
    0.6290